# Solution for model GNN
# Objective value = 1.9125116453361661e+00
A[0,0] 1
A[0,1] 1
A[0,2] 1
A[0,3] 1
A[1,0] 1
A[1,1] 1
A[1,2] 0
A[1,3] 0
A[2,0] 1
A[2,1] 0
A[2,2] 1
A[2,3] 0
A[3,0] 1
A[3,1] 0
A[3,2] 0
A[3,3] 1
x[0,0] 1
x[0,1] 0
x[0,2] 0
x[0,3] 0
x[0,4] 0
x[0,5] 0
x[0,6] 0
x[0,7] 1
x[0,8] 0
x[0,9] 0
x[0,10] 1
x[0,11] 0
x[0,12] 0
x[0,13] 0
x[1,0] 0
x[1,1] 1
x[1,2] 0
x[1,3] 0
x[1,4] 0
x[1,5] 1
x[1,6] 0
x[1,7] 0
x[1,8] 0
x[1,9] 0
x[1,10] 1
x[1,11] 0
x[1,12] 0
x[1,13] 0
x[2,0] 0
x[2,1] 1
x[2,2] 0
x[2,3] 0
x[2,4] 0
x[2,5] 1
x[2,6] 0
x[2,7] 0
x[2,8] 0
x[2,9] 0
x[2,10] 1
x[2,11] 0
x[2,12] 0
x[2,13] 0
x[3,0] 0
x[3,1] 1
x[3,2] 0
x[3,3] 0
x[3,4] 0
x[3,5] 1
x[3,6] 0
x[3,7] 0
x[3,8] 0
x[3,9] 0
x[3,10] 1
x[3,11] 0
x[3,12] 0
x[3,13] 0
c[0,0,0] 0
c[0,0,1] 0
c[0,0,2] 0
c[0,0,3] 0
c[0,0,4] 0
c[0,0,5] 0
c[0,0,6] 0
c[0,0,7] 0
c[0,0,8] 0
c[0,0,9] 0
c[0,0,10] 0
c[0,0,11] 0
c[0,0,12] 0
c[0,0,13] 0
c[0,0,14] 0
c[0,0,15] 0
c[0,0,16] 0
c[0,0,17] 0
c[0,0,18] 0
c[0,0,19] 0
c[0,0,20] 0
c[0,0,21] 0
c[0,0,22] 0
c[0,0,23] 0
c[0,0,24] 1
c[0,1,0] 0
c[0,1,1] 0
c[0,1,2] 0
c[0,1,3] 0
c[0,1,4] 0
c[0,1,5] 0
c[0,1,6] 0
c[0,1,7] 0
c[0,1,8] 0
c[0,1,9] 0
c[0,1,10] 0
c[0,1,11] 0
c[0,1,12] 0
c[0,1,13] 0
c[0,1,14] 0
c[0,1,15] 0
c[0,1,16] 0
c[0,1,17] 0
c[0,1,18] 0
c[0,1,19] 0
c[0,1,20] 0
c[0,1,21] 0
c[0,1,22] 1
c[0,1,23] 0
c[0,1,24] 0
c[0,2,0] 0
c[0,2,1] 0
c[0,2,2] 0
c[0,2,3] 0
c[0,2,4] 0
c[0,2,5] 0
c[0,2,6] 0
c[0,2,7] 0
c[0,2,8] 0
c[0,2,9] 0
c[0,2,10] 0
c[0,2,11] 0
c[0,2,12] 0
c[0,2,13] 0
c[0,2,14] 0
c[0,2,15] 0
c[0,2,16] 0
c[0,2,17] 0
c[0,2,18] 0
c[0,2,19] 0
c[0,2,20] 0
c[0,2,21] 0
c[0,2,22] 1
c[0,2,23] 0
c[0,2,24] 0
c[0,3,0] 0
c[0,3,1] 0
c[0,3,2] 0
c[0,3,3] 0
c[0,3,4] 0
c[0,3,5] 0
c[0,3,6] 0
c[0,3,7] 0
c[0,3,8] 0
c[0,3,9] 0
c[0,3,10] 0
c[0,3,11] 0
c[0,3,12] 0
c[0,3,13] 0
c[0,3,14] 0
c[0,3,15] 0
c[0,3,16] 0
c[0,3,17] 0
c[0,3,18] 0
c[0,3,19] 0
c[0,3,20] 0
c[0,3,21] 0
c[0,3,22] 1
c[0,3,23] 0
c[0,3,24] 0
c[1,0,0] 0
c[1,0,1] 0
c[1,0,2] 0
c[1,0,3] 0
c[1,0,4] 0
c[1,0,5] 0
c[1,0,6] 0
c[1,0,7] 0
c[1,0,8] 0
c[1,0,9] 0
c[1,0,10] 0
c[1,0,11] 0
c[1,0,12] 0
c[1,0,13] 0
c[1,0,14] 1
c[1,0,15] 0
c[1,0,16] 0
c[1,0,17] 0
c[1,0,18] 0
c[1,0,19] 0
c[1,0,20] 0
c[1,0,21] 0
c[1,0,22] 0
c[1,0,23] 0
c[1,0,24] 0
c[1,1,0] 0
c[1,1,1] 0
c[1,1,2] 0
c[1,1,3] 0
c[1,1,4] 0
c[1,1,5] 0
c[1,1,6] 0
c[1,1,7] 0
c[1,1,8] 0
c[1,1,9] 0
c[1,1,10] 0
c[1,1,11] 0
c[1,1,12] 1
c[1,1,13] 0
c[1,1,14] 0
c[1,1,15] 0
c[1,1,16] 0
c[1,1,17] 0
c[1,1,18] 0
c[1,1,19] 0
c[1,1,20] 0
c[1,1,21] 0
c[1,1,22] 0
c[1,1,23] 0
c[1,1,24] 0
c[1,2,0] 0
c[1,2,1] 0
c[1,2,2] 0
c[1,2,3] 0
c[1,2,4] 0
c[1,2,5] 0
c[1,2,6] 0
c[1,2,7] 0
c[1,2,8] 0
c[1,2,9] 0
c[1,2,10] 0
c[1,2,11] 0
c[1,2,12] 1
c[1,2,13] 0
c[1,2,14] 0
c[1,2,15] 0
c[1,2,16] 0
c[1,2,17] 0
c[1,2,18] 0
c[1,2,19] 0
c[1,2,20] 0
c[1,2,21] 0
c[1,2,22] 0
c[1,2,23] 0
c[1,2,24] 0
c[1,3,0] 0
c[1,3,1] 0
c[1,3,2] 0
c[1,3,3] 0
c[1,3,4] 0
c[1,3,5] 0
c[1,3,6] 0
c[1,3,7] 0
c[1,3,8] 0
c[1,3,9] 0
c[1,3,10] 0
c[1,3,11] 0
c[1,3,12] 1
c[1,3,13] 0
c[1,3,14] 0
c[1,3,15] 0
c[1,3,16] 0
c[1,3,17] 0
c[1,3,18] 0
c[1,3,19] 0
c[1,3,20] 0
c[1,3,21] 0
c[1,3,22] 0
c[1,3,23] 0
c[1,3,24] 0
c[2,0,0] 0
c[2,0,1] 0
c[2,0,2] 0
c[2,0,3] 0
c[2,0,4] 0
c[2,0,5] 0
c[2,0,6] 0
c[2,0,7] 0
c[2,0,8] 0
c[2,0,9] 0
c[2,0,10] 0
c[2,0,11] 0
c[2,0,12] 0
c[2,0,13] 0
c[2,0,14] 1
c[2,0,15] 0
c[2,0,16] 0
c[2,0,17] 0
c[2,0,18] 0
c[2,0,19] 0
c[2,0,20] 0
c[2,0,21] 0
c[2,0,22] 0
c[2,0,23] 0
c[2,0,24] 0
c[2,1,0] 0
c[2,1,1] 0
c[2,1,2] 0
c[2,1,3] 0
c[2,1,4] 0
c[2,1,5] 0
c[2,1,6] 0
c[2,1,7] 0
c[2,1,8] 0
c[2,1,9] 0
c[2,1,10] 0
c[2,1,11] 0
c[2,1,12] 1
c[2,1,13] 0
c[2,1,14] 0
c[2,1,15] 0
c[2,1,16] 0
c[2,1,17] 0
c[2,1,18] 0
c[2,1,19] 0
c[2,1,20] 0
c[2,1,21] 0
c[2,1,22] 0
c[2,1,23] 0
c[2,1,24] 0
c[2,2,0] 0
c[2,2,1] 0
c[2,2,2] 0
c[2,2,3] 0
c[2,2,4] 0
c[2,2,5] 0
c[2,2,6] 0
c[2,2,7] 0
c[2,2,8] 0
c[2,2,9] 0
c[2,2,10] 0
c[2,2,11] 0
c[2,2,12] 1
c[2,2,13] 0
c[2,2,14] 0
c[2,2,15] 0
c[2,2,16] 0
c[2,2,17] 0
c[2,2,18] 0
c[2,2,19] 0
c[2,2,20] 0
c[2,2,21] 0
c[2,2,22] 0
c[2,2,23] 0
c[2,2,24] 0
c[2,3,0] 0
c[2,3,1] 0
c[2,3,2] 0
c[2,3,3] 0
c[2,3,4] 0
c[2,3,5] 0
c[2,3,6] 0
c[2,3,7] 0
c[2,3,8] 0
c[2,3,9] 0
c[2,3,10] 0
c[2,3,11] 0
c[2,3,12] 1
c[2,3,13] 0
c[2,3,14] 0
c[2,3,15] 0
c[2,3,16] 0
c[2,3,17] 0
c[2,3,18] 0
c[2,3,19] 0
c[2,3,20] 0
c[2,3,21] 0
c[2,3,22] 0
c[2,3,23] 0
c[2,3,24] 0
c[3,0,0] 0
c[3,0,1] 0
c[3,0,2] 0
c[3,0,3] 0
c[3,0,4] 0
c[3,0,5] 0
c[3,0,6] 0
c[3,0,7] 0
c[3,0,8] 0
c[3,0,9] 0
c[3,0,10] 0
c[3,0,11] 0
c[3,0,12] 0
c[3,0,13] 0
c[3,0,14] 1
c[3,0,15] 0
c[3,0,16] 0
c[3,0,17] 0
c[3,0,18] 0
c[3,0,19] 0
c[3,0,20] 0
c[3,0,21] 0
c[3,0,22] 0
c[3,0,23] 0
c[3,0,24] 0
c[3,1,0] 0
c[3,1,1] 0
c[3,1,2] 0
c[3,1,3] 0
c[3,1,4] 0
c[3,1,5] 0
c[3,1,6] 0
c[3,1,7] 0
c[3,1,8] 0
c[3,1,9] 0
c[3,1,10] 0
c[3,1,11] 0
c[3,1,12] 1
c[3,1,13] 0
c[3,1,14] 0
c[3,1,15] 0
c[3,1,16] 0
c[3,1,17] 0
c[3,1,18] 0
c[3,1,19] 0
c[3,1,20] 0
c[3,1,21] 0
c[3,1,22] 0
c[3,1,23] 0
c[3,1,24] 0
c[3,2,0] 0
c[3,2,1] 0
c[3,2,2] 0
c[3,2,3] 0
c[3,2,4] 0
c[3,2,5] 0
c[3,2,6] 0
c[3,2,7] 0
c[3,2,8] 0
c[3,2,9] 0
c[3,2,10] 0
c[3,2,11] 0
c[3,2,12] 1
c[3,2,13] 0
c[3,2,14] 0
c[3,2,15] 0
c[3,2,16] 0
c[3,2,17] 0
c[3,2,18] 0
c[3,2,19] 0
c[3,2,20] 0
c[3,2,21] 0
c[3,2,22] 0
c[3,2,23] 0
c[3,2,24] 0
c[3,3,0] 0
c[3,3,1] 0
c[3,3,2] 0
c[3,3,3] 0
c[3,3,4] 0
c[3,3,5] 0
c[3,3,6] 0
c[3,3,7] 0
c[3,3,8] 0
c[3,3,9] 0
c[3,3,10] 0
c[3,3,11] 0
c[3,3,12] 1
c[3,3,13] 0
c[3,3,14] 0
c[3,3,15] 0
c[3,3,16] 0
c[3,3,17] 0
c[3,3,18] 0
c[3,3,19] 0
c[3,3,20] 0
c[3,3,21] 0
c[3,3,22] 0
c[3,3,23] 0
c[3,3,24] 0
b[0,0,0] 0
b[0,0,1] 0
b[0,0,2] 0
b[0,0,3] 0
b[0,0,4] 0
b[0,0,5] 0
b[0,0,6] 0
b[0,0,7] 0
b[0,0,8] 0
b[0,0,9] 0
b[0,0,10] 0
b[0,0,11] 0
b[0,0,12] 0
b[0,0,13] 0
b[0,1,0] 0
b[0,1,1] 0
b[0,1,2] 0
b[0,1,3] 0
b[0,1,4] 0
b[0,1,5] 0
b[0,1,6] 0
b[0,1,7] 0
b[0,1,8] 0
b[0,1,9] 0
b[0,1,10] 0
b[0,1,11] 0
b[0,1,12] 0
b[0,1,13] 0
b[0,2,0] 0
b[0,2,1] 0
b[0,2,2] 0
b[0,2,3] 0
b[0,2,4] 0
b[0,2,5] 0
b[0,2,6] 0
b[0,2,7] 0
b[0,2,8] 0
b[0,2,9] 0
b[0,2,10] 0
b[0,2,11] 0
b[0,2,12] 0
b[0,2,13] 0
b[0,3,0] 0
b[0,3,1] 0
b[0,3,2] 0
b[0,3,3] 0
b[0,3,4] 0
b[0,3,5] 0
b[0,3,6] 0
b[0,3,7] 0
b[0,3,8] 0
b[0,3,9] 0
b[0,3,10] 0
b[0,3,11] 0
b[0,3,12] 0
b[0,3,13] 0
b[1,0,0] 0
b[1,0,1] 0
b[1,0,2] 0
b[1,0,3] 0
b[1,0,4] 0
b[1,0,5] 0
b[1,0,6] 0
b[1,0,7] 0
b[1,0,8] 0
b[1,0,9] 0
b[1,0,10] 0
b[1,0,11] 0
b[1,0,12] 0
b[1,0,13] 0
b[1,1,0] 0
b[1,1,1] 0
b[1,1,2] 0
b[1,1,3] 0
b[1,1,4] 0
b[1,1,5] 0
b[1,1,6] 0
b[1,1,7] 0
b[1,1,8] 0
b[1,1,9] 0
b[1,1,10] 0
b[1,1,11] 0
b[1,1,12] 0
b[1,1,13] 0
b[1,2,0] 0
b[1,2,1] 0
b[1,2,2] 0
b[1,2,3] 0
b[1,2,4] 0
b[1,2,5] 0
b[1,2,6] 0
b[1,2,7] 0
b[1,2,8] 0
b[1,2,9] 0
b[1,2,10] 0
b[1,2,11] 0
b[1,2,12] 0
b[1,2,13] 0
b[1,3,0] 0
b[1,3,1] 0
b[1,3,2] 0
b[1,3,3] 0
b[1,3,4] 0
b[1,3,5] 0
b[1,3,6] 0
b[1,3,7] 0
b[1,3,8] 0
b[1,3,9] 0
b[1,3,10] 0
b[1,3,11] 0
b[1,3,12] 0
b[1,3,13] 0
b[2,0,0] 0
b[2,0,1] 0
b[2,0,2] 0
b[2,0,3] 0
b[2,0,4] 0
b[2,0,5] 0
b[2,0,6] 0
b[2,0,7] 0
b[2,0,8] 0
b[2,0,9] 0
b[2,0,10] 0
b[2,0,11] 0
b[2,0,12] 0
b[2,0,13] 0
b[2,1,0] 0
b[2,1,1] 0
b[2,1,2] 0
b[2,1,3] 0
b[2,1,4] 0
b[2,1,5] 0
b[2,1,6] 0
b[2,1,7] 0
b[2,1,8] 0
b[2,1,9] 0
b[2,1,10] 0
b[2,1,11] 0
b[2,1,12] 0
b[2,1,13] 0
b[2,2,0] 0
b[2,2,1] 0
b[2,2,2] 0
b[2,2,3] 0
b[2,2,4] 0
b[2,2,5] 0
b[2,2,6] 0
b[2,2,7] 0
b[2,2,8] 0
b[2,2,9] 0
b[2,2,10] 0
b[2,2,11] 0
b[2,2,12] 0
b[2,2,13] 0
b[2,3,0] 0
b[2,3,1] 0
b[2,3,2] 0
b[2,3,3] 0
b[2,3,4] 0
b[2,3,5] 0
b[2,3,6] 0
b[2,3,7] 0
b[2,3,8] 0
b[2,3,9] 0
b[2,3,10] 0
b[2,3,11] 0
b[2,3,12] 0
b[2,3,13] 0
b[3,0,0] 0
b[3,0,1] 0
b[3,0,2] 0
b[3,0,3] 0
b[3,0,4] 0
b[3,0,5] 0
b[3,0,6] 0
b[3,0,7] 0
b[3,0,8] 0
b[3,0,9] 0
b[3,0,10] 0
b[3,0,11] 0
b[3,0,12] 0
b[3,0,13] 0
b[3,1,0] 0
b[3,1,1] 0
b[3,1,2] 0
b[3,1,3] 0
b[3,1,4] 0
b[3,1,5] 0
b[3,1,6] 0
b[3,1,7] 0
b[3,1,8] 0
b[3,1,9] 0
b[3,1,10] 0
b[3,1,11] 0
b[3,1,12] 0
b[3,1,13] 0
b[3,2,0] 0
b[3,2,1] 0
b[3,2,2] 0
b[3,2,3] 0
b[3,2,4] 0
b[3,2,5] 0
b[3,2,6] 0
b[3,2,7] 0
b[3,2,8] 0
b[3,2,9] 0
b[3,2,10] 0
b[3,2,11] 0
b[3,2,12] 0
b[3,2,13] 0
b[3,3,0] 0
b[3,3,1] 0
b[3,3,2] 0
b[3,3,3] 0
b[3,3,4] 0
b[3,3,5] 0
b[3,3,6] 0
b[3,3,7] 0
b[3,3,8] 0
b[3,3,9] 0
b[3,3,10] 0
b[3,3,11] 0
b[3,3,12] 0
b[3,3,13] 0
sp[0,0] 0.25
sp[0,1] 3.5355339059327379e-01
sp[0,2] 3.5355339059327373e-01
sp[0,3] 3.5355339059327373e-01
sp[1,0] 3.5355339059327379e-01
sp[1,1] 4.9999999999999989e-01
sp[1,2] 4.9999999999999989e-01
sp[1,3] 4.9999999999999989e-01
sp[2,0] 3.5355339059327373e-01
sp[2,1] 4.9999999999999989e-01
sp[2,2] 0.5
sp[2,3] 4.9999999999999989e-01
sp[3,0] 3.5355339059327373e-01
sp[3,1] 4.9999999999999989e-01
sp[3,2] 4.9999999999999989e-01
sp[3,3] 0.5
d_plus[0] 4
d_plus[1] 2
d_plus[2] 2
d_plus[3] 2
p[0,0] 24
p[0,1] 22
p[0,2] 22
p[0,3] 22
p[1,0] 14
p[1,1] 12
p[1,2] 12
p[1,3] 12
p[2,0] 14
p[2,1] 12
p[2,2] 12
p[2,3] 12
p[3,0] 14
p[3,1] 12
p[3,2] 12
p[3,3] 12
t[0,0] 0.25
t[0,1] 3.5355339059327379e-01
t[0,2] 3.5355339059327151e-01
t[0,3] 3.5355339059327079e-01
t[1,0] 3.5355339059327379e-01
t[1,1] 4.9999999999999989e-01
t[1,2] 0
t[1,3] 0
t[2,0] 0.353553390593271
t[2,1] 0
t[2,2] 5.0000000000000033e-01
t[2,3] 0
t[3,0] 3.5355339059327029e-01
t[3,1] 0
t[3,2] 0
t[3,3] 0.5
h_prime[0,0] 9.0628870521095375e-02
h_prime[0,1] 1.5803162532939280e-01
h_prime[0,2] 4.9719946786232355e-01
h_prime[0,3] 6.1268967364174531e-01
h_prime[0,4] 0
h_prime[0,5] 0
h_prime[0,6] 4.7572299355045825e-02
h_prime[0,7] 1.5327877245291357e-02
h_prime[0,8] 5.8634884459362435e-01
h_prime[0,9] 0
h_prime[0,10] 3.8958920885152187e-01
h_prime[0,11] 0
h_prime[0,12] 3.1095152394146280e-01
h_prime[0,13] 1.1819796475244607e-01
h_prime[0,14] 4.3834957147785664e-01
h_prime[0,15] 0
h_prime[0,16] 1.1733528044079232e-01
h_prime[0,17] 0
h_prime[0,18] 0
h_prime[0,19] 2.2571478773411177e-01
h_prime[0,20] 2.7381426760764010e-01
h_prime[0,21] 6.4613114897545842e-01
h_prime[0,22] 0
h_prime[0,23] 1.9162068274673727e-01
h_prime[0,24] 6.6430457679403043e-01
h_prime[0,25] 0
h_prime[0,26] 0
h_prime[0,27] 1.7357707081970911e-01
h_prime[0,28] 0
h_prime[0,29] 4.8483592773687773e-01
h_prime[0,30] 7.3388479939883178e-01
h_prime[0,31] 4.5849532387073882e-01
h_prime[1,0] 4.9242313566546639e-02
h_prime[1,1] 1.0575057682918215e-01
h_prime[1,2] 3.8822539081107504e-01
h_prime[1,3] 0.448035990131706
h_prime[1,4] 0
h_prime[1,5] 0
h_prime[1,6] 3.2929525958022815e-02
h_prime[1,7] 0
h_prime[1,8] 4.4342119638142191e-01
h_prime[1,9] 0
h_prime[1,10] 3.0044660777825977e-01
h_prime[1,11] 0
h_prime[1,12] 2.2569630006433067e-01
h_prime[1,13] 1.1641596704432014e-01
h_prime[1,14] 2.9591305503530413e-01
h_prime[1,15] 0
h_prime[1,16] 8.2844919785197549e-02
h_prime[1,17] 0
h_prime[1,18] 0
h_prime[1,19] 1.7022742514434708e-01
h_prime[1,20] 2.0301192729503958e-01
h_prime[1,21] 4.3429471614191278e-01
h_prime[1,22] 0
h_prime[1,23] 1.3190309641388168e-01
h_prime[1,24] 4.7802509425493672e-01
h_prime[1,25] 0
h_prime[1,26] 0
h_prime[1,27] 0.0941187277174059
h_prime[1,28] 0
h_prime[1,29] 3.5733100093537878e-01
h_prime[1,30] 5.5506112040996214e-01
h_prime[1,31] 3.5084551296748673e-01
h_prime[2,0] 4.9242313566518169e-02
h_prime[2,1] 1.0575057682911601e-01
h_prime[2,2] 3.8822539081110691e-01
h_prime[2,3] 4.4803599013173917e-01
h_prime[2,4] 0
h_prime[2,5] 0
h_prime[2,6] 3.2929525958116851e-02
h_prime[2,7] 0
h_prime[2,8] 4.4342119638134003e-01
h_prime[2,9] 0
h_prime[2,10] 3.0044660777812904e-01
h_prime[2,11] 0
h_prime[2,12] 2.2569630006431074e-01
h_prime[2,13] 1.1641596704431643e-01
h_prime[2,14] 2.9591305503520904e-01
h_prime[2,15] 0
h_prime[2,16] 8.2844919785246232e-02
h_prime[2,17] 0
h_prime[2,18] 0
h_prime[2,19] 1.7022742514435935e-01
h_prime[2,20] 2.0301192729495016e-01
h_prime[2,21] 0.434294716141836
h_prime[2,22] 0
h_prime[2,23] 1.3190309641383902e-01
h_prime[2,24] 4.7802509425487183e-01
h_prime[2,25] 0
h_prime[2,26] 0
h_prime[2,27] 9.4118727717490053e-02
h_prime[2,28] 0
h_prime[2,29] 3.5733100093551534e-01
h_prime[2,30] 5.5506112040988131e-01
h_prime[2,31] 3.5084551296734456e-01
h_prime[3,0] 4.9242313566536529e-02
h_prime[3,1] 1.0575057682902522e-01
h_prime[3,2] 3.8822539081179430e-01
h_prime[3,3] 4.4803599013239126e-01
h_prime[3,4] 0
h_prime[3,5] 0
h_prime[3,6] 0.0329295259581533
h_prime[3,7] 0
h_prime[3,8] 4.4342119638134875e-01
h_prime[3,9] 0
h_prime[3,10] 3.0044660777815424e-01
h_prime[3,11] 0
h_prime[3,12] 2.2569630006431321e-01
h_prime[3,13] 1.1641596704479079e-01
h_prime[3,14] 2.9591305503448384e-01
h_prime[3,15] 0
h_prime[3,16] 8.2844919785261331e-02
h_prime[3,17] 0
h_prime[3,18] 0
h_prime[3,19] 1.7022742514435849e-01
h_prime[3,20] 2.0301192729500089e-01
h_prime[3,21] 4.3429471614185317e-01
h_prime[3,22] 0
h_prime[3,23] 1.3190309641389353e-01
h_prime[3,24] 4.7802509425501138e-01
h_prime[3,25] 0
h_prime[3,26] 0
h_prime[3,27] 0.0941187277169456
h_prime[3,28] 0
h_prime[3,29] 3.5733100093633646e-01
h_prime[3,30] 0.555061120409856
h_prime[3,31] 3.5084551296747252e-01
x_0_0_0_GCN 0
s_0_0_0_GCN 7.5886100255450473e-01
z_0_0_0_GCN 0
x_0_0_1_GCN 0
s_0_0_1_GCN 2.3237591859458362e-01
z_0_0_1_GCN 0
x_0_0_2_GCN 1.0870251965604878e-01
s_0_0_2_GCN 0
z_0_0_2_GCN 1
x_0_0_3_GCN 3.1834198994158508e-01
s_0_0_3_GCN 0
z_0_0_3_GCN 1
x_0_0_4_GCN 6.8270705738129833e-01
s_0_0_4_GCN 0
z_0_0_4_GCN 1
x_0_0_5_GCN 0.309629313561947
s_0_0_5_GCN 0
z_0_0_5_GCN 1
x_0_0_6_GCN 6.3441007274631489e-01
s_0_0_6_GCN 0
z_0_0_6_GCN 1
x_0_0_7_GCN 1.1990445568134691e+00
s_0_0_7_GCN 0
z_0_0_7_GCN 1
x_0_0_8_GCN 8.8436264115444418e-02
s_0_0_8_GCN 0
z_0_0_8_GCN 1
x_0_0_9_GCN 0
s_0_0_9_GCN 3.5715932351679691e-02
z_0_0_9_GCN 0
x_0_0_10_GCN 5.2062711926773020e-01
s_0_0_10_GCN 0
z_0_0_10_GCN 1
x_0_0_11_GCN 0
s_0_0_11_GCN 8.2313723351837509e-01
z_0_0_11_GCN 0
x_0_0_12_GCN 0
s_0_0_12_GCN 2.2953359770410678e-01
z_0_0_12_GCN 0
x_0_0_13_GCN 0
s_0_0_13_GCN 2.0350762126599292e-01
z_0_0_13_GCN 0
x_0_0_14_GCN 1.0273711700665422e+00
s_0_0_14_GCN 0
z_0_0_14_GCN 1
x_0_0_15_GCN 0
s_0_0_15_GCN 1.0066784488253924e-01
z_0_0_15_GCN 0
x_0_1_0_GCN 0
s_0_1_0_GCN 4.7491151661160375e-01
z_0_1_0_GCN 0
x_0_1_1_GCN 0
s_0_1_1_GCN 2.8223975978510241e-01
z_0_1_1_GCN 0
x_0_1_2_GCN 0.261255241252447
s_0_1_2_GCN 0
z_0_1_2_GCN 1
x_0_1_3_GCN 1.7719777609032128e-01
s_0_1_3_GCN 0
z_0_1_3_GCN 1
x_0_1_4_GCN 3.2182786362444693e-01
s_0_1_4_GCN 0
z_0_1_4_GCN 1
x_0_1_5_GCN 2.6888026301503887e-01
s_0_1_5_GCN 0
z_0_1_5_GCN 1
x_0_1_6_GCN 2.8069043723883819e-01
s_0_1_6_GCN 0
z_0_1_6_GCN 1
x_0_1_7_GCN 0.574180933896467
s_0_1_7_GCN 0
z_0_1_7_GCN 1
x_0_1_8_GCN 2.9653229906531964e-02
s_0_1_8_GCN 0
z_0_1_8_GCN 1
x_0_1_9_GCN 0
s_0_1_9_GCN 1.9073624182926469e-01
z_0_1_9_GCN 0
x_0_1_10_GCN 2.2585395235439160e-01
s_0_1_10_GCN 0
z_0_1_10_GCN 1
x_0_1_11_GCN 0
s_0_1_11_GCN 3.9369607239224824e-01
z_0_1_11_GCN 0
x_0_1_12_GCN 0
s_0_1_12_GCN 2.0292282988723565e-01
z_0_1_12_GCN 0
x_0_1_13_GCN 0
s_0_1_13_GCN 2.0043510363138983e-01
z_0_1_13_GCN 0
x_0_1_14_GCN 7.3580831529245949e-01
s_0_1_14_GCN 0
z_0_1_14_GCN 1
x_0_1_15_GCN 0
s_0_1_15_GCN 1.4170158300369551e-02
z_0_1_15_GCN 0
x_0_2_0_GCN 0
s_0_2_0_GCN 4.7491151661159048e-01
z_0_2_0_GCN 0
x_0_2_1_GCN 0
s_0_2_1_GCN 2.8223975978508758e-01
z_0_2_1_GCN 0
x_0_2_2_GCN 2.6125524125248828e-01
s_0_2_2_GCN 0
z_0_2_2_GCN 1
x_0_2_3_GCN 1.7719777609026210e-01
s_0_2_3_GCN 0
z_0_2_3_GCN 1
x_0_2_4_GCN 3.2182786362449806e-01
s_0_2_4_GCN 0
z_0_2_4_GCN 1
x_0_2_5_GCN 2.6888026301505491e-01
s_0_2_5_GCN 0
z_0_2_5_GCN 1
x_0_2_6_GCN 2.8069043723879294e-01
s_0_2_6_GCN 0
z_0_2_6_GCN 1
x_0_2_7_GCN 5.7418093389640035e-01
s_0_2_7_GCN 0
z_0_2_7_GCN 1
x_0_2_8_GCN 2.9653229906546508e-02
s_0_2_8_GCN 0
z_0_2_8_GCN 1
x_0_2_9_GCN 0
s_0_2_9_GCN 1.9073624182923907e-01
z_0_2_9_GCN 0
x_0_2_10_GCN 2.2585395235442285e-01
s_0_2_10_GCN 0
z_0_2_10_GCN 1
x_0_2_11_GCN 0
s_0_2_11_GCN 3.9369607239221838e-01
z_0_2_11_GCN 0
x_0_2_12_GCN 0
s_0_2_12_GCN 2.0292282988724653e-01
z_0_2_12_GCN 0
x_0_2_13_GCN 0
s_0_2_13_GCN 2.0043510363139261e-01
z_0_2_13_GCN 0
x_0_2_14_GCN 7.3580831529244239e-01
s_0_2_14_GCN 0
z_0_2_14_GCN 1
x_0_2_15_GCN 0
s_0_2_15_GCN 1.4170158300383928e-02
z_0_2_15_GCN 0
x_0_3_0_GCN 0
s_0_3_0_GCN 4.7491151661158748e-01
z_0_3_0_GCN 0
x_0_3_1_GCN 0
s_0_3_1_GCN 2.8223975978508981e-01
z_0_3_1_GCN 0
x_0_3_2_GCN 2.6125524125248789e-01
s_0_3_2_GCN 0
z_0_3_2_GCN 1
x_0_3_3_GCN 1.7719777609026874e-01
s_0_3_3_GCN 0
z_0_3_3_GCN 1
x_0_3_4_GCN 3.2182786362449239e-01
s_0_3_4_GCN 0
z_0_3_4_GCN 1
x_0_3_5_GCN 2.6888026301505524e-01
s_0_3_5_GCN 0
z_0_3_5_GCN 1
x_0_3_6_GCN 2.8069043723879616e-01
s_0_3_6_GCN 0
z_0_3_6_GCN 1
x_0_3_7_GCN 5.7418093389644631e-01
s_0_3_7_GCN 0
z_0_3_7_GCN 1
x_0_3_8_GCN 2.9653229906546230e-02
s_0_3_8_GCN 0
z_0_3_8_GCN 1
x_0_3_9_GCN 0
s_0_3_9_GCN 1.9073624182923846e-01
z_0_3_9_GCN 0
x_0_3_10_GCN 2.2585395235441541e-01
s_0_3_10_GCN 0
z_0_3_10_GCN 1
x_0_3_11_GCN 0
s_0_3_11_GCN 3.9369607239221754e-01
z_0_3_11_GCN 0
x_0_3_12_GCN 0
s_0_3_12_GCN 2.0292282988724514e-01
z_0_3_12_GCN 0
x_0_3_13_GCN 0
s_0_3_13_GCN 2.0043510363139794e-01
z_0_3_13_GCN 0
x_0_3_14_GCN 7.3580831529243640e-01
s_0_3_14_GCN 0
z_0_3_14_GCN 1
x_0_3_15_GCN 0
s_0_3_15_GCN 1.4170158300385538e-02
z_0_3_15_GCN 0
x_1_0_0_GCN 0
s_1_0_0_GCN 0
z_1_0_0_GCN 1
x_1_0_1_GCN 0
s_1_0_1_GCN 0
z_1_0_1_GCN 1
x_1_0_2_GCN 0
s_1_0_2_GCN 0
z_1_0_2_GCN 1
x_1_0_3_GCN 0
s_1_0_3_GCN 0
z_1_0_3_GCN 1
x_1_0_4_GCN 0
s_1_0_4_GCN 7.3198432252032042e-01
z_1_0_4_GCN 0
x_1_0_5_GCN 0
s_1_0_5_GCN 4.2019600095920062e-01
z_1_0_5_GCN 0
x_1_0_6_GCN 0
s_1_0_6_GCN 0
z_1_0_6_GCN 1
x_1_0_7_GCN 0
s_1_0_7_GCN 0
z_1_0_7_GCN 1
x_1_0_8_GCN 0
s_1_0_8_GCN 0
z_1_0_8_GCN 1
x_1_0_9_GCN 0
s_1_0_9_GCN 2.1145790958013538e-01
z_1_0_9_GCN 0
x_1_0_10_GCN 0
s_1_0_10_GCN 0
z_1_0_10_GCN 1
x_1_0_11_GCN 0
s_1_0_11_GCN 2.6664558042852027e-01
z_1_0_11_GCN 0
x_1_0_12_GCN 0
s_1_0_12_GCN 0
z_1_0_12_GCN 1
x_1_0_13_GCN 0
s_1_0_13_GCN 0
z_1_0_13_GCN 1
x_1_0_14_GCN 0
s_1_0_14_GCN 0
z_1_0_14_GCN 1
x_1_0_15_GCN 0
s_1_0_15_GCN 4.6413754708701252e-02
z_1_0_15_GCN 0
x_1_0_16_GCN 0
s_1_0_16_GCN 0
z_1_0_16_GCN 1
x_1_0_17_GCN 0
s_1_0_17_GCN 1.4097492885614260e-01
z_1_0_17_GCN 0
x_1_0_18_GCN 0
s_1_0_18_GCN 1.2995780197908730e-01
z_1_0_18_GCN 0
x_1_0_19_GCN 0
s_1_0_19_GCN 0
z_1_0_19_GCN 1
x_1_0_20_GCN 0
s_1_0_20_GCN 6.1727012390377922e-13
z_1_0_20_GCN 1
x_1_0_21_GCN 0
s_1_0_21_GCN 0
z_1_0_21_GCN 1
x_1_0_22_GCN 0
s_1_0_22_GCN 6.1685032510065618e-01
z_1_0_22_GCN 0
x_1_0_23_GCN 0
s_1_0_23_GCN 0
z_1_0_23_GCN 1
x_1_0_24_GCN 0
s_1_0_24_GCN 0
z_1_0_24_GCN 1
x_1_0_25_GCN 0
s_1_0_25_GCN 2.8059197402607888e-01
z_1_0_25_GCN 0
x_1_0_26_GCN 0
s_1_0_26_GCN 2.5030287298619852e-01
z_1_0_26_GCN 0
x_1_0_27_GCN 0
s_1_0_27_GCN 0
z_1_0_27_GCN 1
x_1_0_28_GCN 0
s_1_0_28_GCN 2.0920747712405069e-02
z_1_0_28_GCN 0
x_1_0_29_GCN 0
s_1_0_29_GCN 0
z_1_0_29_GCN 1
x_1_0_30_GCN 0
s_1_0_30_GCN 0
z_1_0_30_GCN 1
x_1_0_31_GCN 0
s_1_0_31_GCN 0
z_1_0_31_GCN 1
x_1_1_0_GCN 0
s_1_1_0_GCN 0
z_1_1_0_GCN 1
x_1_1_1_GCN 0
s_1_1_1_GCN 0
z_1_1_1_GCN 1
x_1_1_2_GCN 0
s_1_1_2_GCN 0
z_1_1_2_GCN 1
x_1_1_3_GCN 0
s_1_1_3_GCN 0
z_1_1_3_GCN 1
x_1_1_4_GCN 0
s_1_1_4_GCN 5.3012567405400335e-01
z_1_1_4_GCN 0
x_1_1_5_GCN 0
s_1_1_5_GCN 3.5300549708861273e-01
z_1_1_5_GCN 0
x_1_1_6_GCN 0
s_1_1_6_GCN 0
z_1_1_6_GCN 1
x_1_1_7_GCN 0
s_1_1_7_GCN 1.3570232878635981e-02
z_1_1_7_GCN 0
x_1_1_8_GCN 0
s_1_1_8_GCN 0
z_1_1_8_GCN 1
x_1_1_9_GCN 0
s_1_1_9_GCN 1.4772707058692350e-01
z_1_1_9_GCN 0
x_1_1_10_GCN 0
s_1_1_10_GCN 0
z_1_1_10_GCN 1
x_1_1_11_GCN 0
s_1_1_11_GCN 1.9378579629204740e-01
z_1_1_11_GCN 0
x_1_1_12_GCN 0
s_1_1_12_GCN 0
z_1_1_12_GCN 1
x_1_1_13_GCN 0
s_1_1_13_GCN 0
z_1_1_13_GCN 1
x_1_1_14_GCN 0
s_1_1_14_GCN 0
z_1_1_14_GCN 1
x_1_1_15_GCN 0
s_1_1_15_GCN 2.5363143501720808e-02
z_1_1_15_GCN 0
x_1_1_16_GCN 0
s_1_1_16_GCN 0
z_1_1_16_GCN 1
x_1_1_17_GCN 0
s_1_1_17_GCN 1.0049869151754082e-01
z_1_1_17_GCN 0
x_1_1_18_GCN 0
s_1_1_18_GCN 9.6463774326480817e-02
z_1_1_18_GCN 0
x_1_1_19_GCN 0
s_1_1_19_GCN 0
z_1_1_19_GCN 1
x_1_1_20_GCN 0
s_1_1_20_GCN 0
z_1_1_20_GCN 1
x_1_1_21_GCN 0
s_1_1_21_GCN 0
z_1_1_21_GCN 1
x_1_1_22_GCN 0
s_1_1_22_GCN 4.8145318992778968e-01
z_1_1_22_GCN 0
x_1_1_23_GCN 0
s_1_1_23_GCN 0
z_1_1_23_GCN 1
x_1_1_24_GCN 0
s_1_1_24_GCN 0
z_1_1_24_GCN 1
x_1_1_25_GCN 0
s_1_1_25_GCN 0.208167423621276
z_1_1_25_GCN 0
x_1_1_26_GCN 0
s_1_1_26_GCN 1.7699773181202730e-01
z_1_1_26_GCN 0
x_1_1_27_GCN 0
s_1_1_27_GCN 0
z_1_1_27_GCN 1
x_1_1_28_GCN 0
s_1_1_28_GCN 4.1289633814476888e-02
z_1_1_28_GCN 0
x_1_1_29_GCN 0
s_1_1_29_GCN 0
z_1_1_29_GCN 1
x_1_1_30_GCN 0
s_1_1_30_GCN 0
z_1_1_30_GCN 1
x_1_1_31_GCN 0
s_1_1_31_GCN 0
z_1_1_31_GCN 1
x_1_2_0_GCN 0
s_1_2_0_GCN 0
z_1_2_0_GCN 1
x_1_2_1_GCN 0
s_1_2_1_GCN 0
z_1_2_1_GCN 1
x_1_2_2_GCN 0
s_1_2_2_GCN 0
z_1_2_2_GCN 1
x_1_2_3_GCN 0
s_1_2_3_GCN 0
z_1_2_3_GCN 1
x_1_2_4_GCN 0
s_1_2_4_GCN 5.3012567405417388e-01
z_1_2_4_GCN 0
x_1_2_5_GCN 0
s_1_2_5_GCN 3.5300549708861106e-01
z_1_2_5_GCN 0
x_1_2_6_GCN 0
s_1_2_6_GCN 0
z_1_2_6_GCN 1
x_1_2_7_GCN 0
s_1_2_7_GCN 1.3570232878656014e-02
z_1_2_7_GCN 0
x_1_2_8_GCN 0
s_1_2_8_GCN 0
z_1_2_8_GCN 1
x_1_2_9_GCN 0
s_1_2_9_GCN 1.4772707058689011e-01
z_1_2_9_GCN 0
x_1_2_10_GCN 0
s_1_2_10_GCN 0
z_1_2_10_GCN 1
x_1_2_11_GCN 0
s_1_2_11_GCN 1.9378579629210985e-01
z_1_2_11_GCN 0
x_1_2_12_GCN 0
s_1_2_12_GCN 0
z_1_2_12_GCN 1
x_1_2_13_GCN 0
s_1_2_13_GCN 0
z_1_2_13_GCN 1
x_1_2_14_GCN 0
s_1_2_14_GCN 0
z_1_2_14_GCN 1
x_1_2_15_GCN 0
s_1_2_15_GCN 2.5363143501756398e-02
z_1_2_15_GCN 0
x_1_2_16_GCN 0
s_1_2_16_GCN 0
z_1_2_16_GCN 1
x_1_2_17_GCN 0
s_1_2_17_GCN 1.0049869151754859e-01
z_1_2_17_GCN 0
x_1_2_18_GCN 0
s_1_2_18_GCN 9.6463774326439988e-02
z_1_2_18_GCN 0
x_1_2_19_GCN 0
s_1_2_19_GCN 0
z_1_2_19_GCN 1
x_1_2_20_GCN 0
s_1_2_20_GCN 0
z_1_2_20_GCN 1
x_1_2_21_GCN 0
s_1_2_21_GCN 0
z_1_2_21_GCN 1
x_1_2_22_GCN 0
s_1_2_22_GCN 4.8145318992778863e-01
z_1_2_22_GCN 0
x_1_2_23_GCN 0
s_1_2_23_GCN 0
z_1_2_23_GCN 1
x_1_2_24_GCN 0
s_1_2_24_GCN 0
z_1_2_24_GCN 1
x_1_2_25_GCN 0
s_1_2_25_GCN 2.0816742362126417e-01
z_1_2_25_GCN 0
x_1_2_26_GCN 0
s_1_2_26_GCN 1.7699773181156486e-01
z_1_2_26_GCN 0
x_1_2_27_GCN 0
s_1_2_27_GCN 0
z_1_2_27_GCN 1
x_1_2_28_GCN 0
s_1_2_28_GCN 4.1289633814460623e-02
z_1_2_28_GCN 0
x_1_2_29_GCN 0
s_1_2_29_GCN 0
z_1_2_29_GCN 1
x_1_2_30_GCN 0
s_1_2_30_GCN 0
z_1_2_30_GCN 1
x_1_2_31_GCN 0
s_1_2_31_GCN 0
z_1_2_31_GCN 1
x_1_3_0_GCN 0
s_1_3_0_GCN 0
z_1_3_0_GCN 1
x_1_3_1_GCN 0
s_1_3_1_GCN 0
z_1_3_1_GCN 1
x_1_3_2_GCN 0
s_1_3_2_GCN 0
z_1_3_2_GCN 1
x_1_3_3_GCN 0
s_1_3_3_GCN 0
z_1_3_3_GCN 1
x_1_3_4_GCN 0
s_1_3_4_GCN 5.3012567405488609e-01
z_1_3_4_GCN 0
x_1_3_5_GCN 0
s_1_3_5_GCN 0.353005497088617
z_1_3_5_GCN 0
x_1_3_6_GCN 0
s_1_3_6_GCN 0
z_1_3_6_GCN 1
x_1_3_7_GCN 0
s_1_3_7_GCN 1.3570232879165966e-02
z_1_3_7_GCN 0
x_1_3_8_GCN 0
s_1_3_8_GCN 0
z_1_3_8_GCN 1
x_1_3_9_GCN 0
s_1_3_9_GCN 1.4772707058690163e-01
z_1_3_9_GCN 0
x_1_3_10_GCN 0
s_1_3_10_GCN 0
z_1_3_10_GCN 1
x_1_3_11_GCN 0
s_1_3_11_GCN 1.9378579629211495e-01
z_1_3_11_GCN 0
x_1_3_12_GCN 0
s_1_3_12_GCN 0
z_1_3_12_GCN 1
x_1_3_13_GCN 0
s_1_3_13_GCN 0
z_1_3_13_GCN 1
x_1_3_14_GCN 0
s_1_3_14_GCN 0
z_1_3_14_GCN 1
x_1_3_15_GCN 0
s_1_3_15_GCN 2.5363143501763608e-02
z_1_3_15_GCN 0
x_1_3_16_GCN 0
s_1_3_16_GCN 0
z_1_3_16_GCN 1
x_1_3_17_GCN 0
s_1_3_17_GCN 1.0049869151801134e-01
z_1_3_17_GCN 0
x_1_3_18_GCN 0
s_1_3_18_GCN 9.6463774326410345e-02
z_1_3_18_GCN 0
x_1_3_19_GCN 0
s_1_3_19_GCN 0
z_1_3_19_GCN 1
x_1_3_20_GCN 0
s_1_3_20_GCN 3.3010399969057858e-13
z_1_3_20_GCN 1
x_1_3_21_GCN 0
s_1_3_21_GCN 0
z_1_3_21_GCN 1
x_1_3_22_GCN 0
s_1_3_22_GCN 4.8145318992779823e-01
z_1_3_22_GCN 0
x_1_3_23_GCN 0
s_1_3_23_GCN 0
z_1_3_23_GCN 1
x_1_3_24_GCN 0
s_1_3_24_GCN 0
z_1_3_24_GCN 1
x_1_3_25_GCN 0
s_1_3_25_GCN 2.0816742362127164e-01
z_1_3_25_GCN 0
x_1_3_26_GCN 0
s_1_3_26_GCN 1.7699773181200790e-01
z_1_3_26_GCN 0
x_1_3_27_GCN 0
s_1_3_27_GCN 0
z_1_3_27_GCN 1
x_1_3_28_GCN 0
s_1_3_28_GCN 4.1289633814860338e-02
z_1_3_28_GCN 0
x_1_3_29_GCN 0
s_1_3_29_GCN 0
z_1_3_29_GCN 1
x_1_3_30_GCN 0
s_1_3_30_GCN 0
z_1_3_30_GCN 1
x_1_3_31_GCN 0
s_1_3_31_GCN 0
z_1_3_31_GCN 1
h[0] 2.3835581122166574e-01
h[1] 4.7528335581671616e-01
h[2] 1.6618756402983970e+00
h[3] 1.9567976440399018e+00
h[4] 0
h[5] 0
h[6] 1.4636087722913710e-01
h[7] 1.5327877245125299e-02
h[8] 1.9166124337411570e+00
h[9] 0
h[10] 1.2909290321877374e+00
h[11] 0
h[12] 9.8804042413581927e-01
h[13] 4.6744586588587345e-01
h[14] 1.3260887365824057e+00
h[15] 0
h[16] 3.6587003979624005e-01
h[17] 0
h[18] 0
h[19] 7.3639706316850773e-01
h[20] 8.8285004949394086e-01
h[21] 1.9490152974028934e+00
h[22] 0
h[23] 5.8732997198950787e-01
h[24] 2.0983798595601488e+00
h[25] 0
h[26] 0
h[27] 4.5593325397137968e-01
h[28] 0
h[29] 1.5568289305456264e+00
h[30] 2.3990681606316882e+00
h[31] 1.5110318627730428e+00
y 1.9125116453361661e+00
x_1_0_ANN 0
s_1_0_ANN 6.2026088544814040e-01
z_1_0_ANN 0
x_1_1_ANN 0
s_1_1_ANN 1.3128291116202451e+00
z_1_1_ANN 0
x_1_2_ANN 0
s_1_2_ANN 3.3919199240077430e-01
z_1_2_ANN 0
x_1_3_ANN 0
s_1_3_ANN 2.04956752557946
z_1_3_ANN 0
x_1_4_ANN 0
s_1_4_ANN 4.2552707936367234e-01
z_1_4_ANN 0
x_1_5_ANN 1.8085795963127009e+00
s_1_5_ANN 0
z_1_5_ANN 1
x_1_6_ANN 0
s_1_6_ANN 0.918753469351421
z_1_6_ANN 0
x_1_7_ANN 2.5797247537685197e+00
s_1_7_ANN 0
z_1_7_ANN 1
x_1_8_ANN 1.8435880717459554e+00
s_1_8_ANN 0
z_1_8_ANN 1
x_1_9_ANN 0
s_1_9_ANN 5.6059463756958394e-01
z_1_9_ANN 0
x_1_10_ANN 0
s_1_10_ANN 2.9608947938764824e-01
z_1_10_ANN 0
x_1_11_ANN -6.3527030665968957e-06
s_1_11_ANN 5.4926880137112732e-01
z_1_11_ANN 0
x_1_12_ANN 0
s_1_12_ANN 7.5569746907141666e-01
z_1_12_ANN 0
x_1_13_ANN 2.3017104869636404e+00
s_1_13_ANN 0
z_1_13_ANN 1
x_1_14_ANN 0
s_1_14_ANN 0.503278066607247
z_1_14_ANN 0
x_1_15_ANN 0
s_1_15_ANN 5.0206872248123624e-01
z_1_15_ANN 0
